
  19    0


   0  11 2 3 5 6 7 8 9 15 16 17 18 
   6   4 14 13 12 4 
   4   2 11 10 
   1   1 10 
   6   1 12 
   5   1 11 
   4   1 10 
   4   1 10 
   4   1 10 
   8   1 19
   6   1 19
   9   1 19
   4   1 19
   9   1 19
   5   1 19
   7   1 19
   6   1 19
   6   1 19
   0   0 
